InboundTrucks  = 60;
OutboundTrucks = 30;
ReleaseTime    = [98,165,120,104,50,50,173,101,14,109,113,115,9,135,83,51,60,126,161,156,164,133,49,102,83,121,32,108,119,168,9,133,63,65,114,120,126,69,11,45,160,25,9,97,66,2,45,54,51,31,91,32,56,176,167,50,111,60,78,166];
UnloadTime     = [6,4,5,5,6,8,4,6,1,10,4,7,7,9,10,6,6,7,3,4,9,6,6,2,4,10,6,1,2,9,7,10,6,2,5,3,5,10,8,5,3,9,3,9,8,3,8,1,1,3,6,8,8,10,3,1,8,2,4,10];
LoadTime       = [3,1,1,2,8,7,1,6,4,9,2,4,7,8,1,9,5,7,8,4,4,8,10,3,2,4,8,8,10,4];
TransferTime   = [| 2,4,0,3,0,0,0,0,0,0,0,0,0,2,5,0,0,0,0,0,0,0,0,0,0,0,0,0,0,0 | 0,0,0,5,0,4,0,0,0,0,3,0,0,2,0,4,1,0,0,0,2,0,0,1,0,0,0,1,0,0 | 0,0,0,0,0,0,2,0,0,0,0,0,0,0,0,0,0,0,0,0,0,0,0,0,0,0,0,0,0,5 | 0,0,0,0,0,0,0,0,0,1,0,0,0,0,2,0,0,0,0,1,0,1,0,0,0,0,0,3,0,0 | 0,0,2,0,0,0,0,0,4,2,2,0,0,0,0,0,0,0,0,0,3,0,0,0,0,0,0,0,0,0 | 0,0,2,0,3,3,0,1,0,0,0,0,5,0,3,0,1,3,0,0,0,0,0,0,3,5,0,0,0,5 | 5,0,0,4,0,0,5,0,0,0,3,0,3,0,0,0,0,3,0,0,0,0,0,0,5,0,0,0,1,5 | 0,0,0,0,0,0,0,0,1,0,0,0,0,0,0,0,0,4,0,0,0,0,0,0,0,0,0,2,0,0 | 0,4,2,0,5,5,0,0,0,0,0,1,0,0,0,0,5,0,0,0,0,0,0,1,0,0,0,0,0,5 | 0,0,1,0,4,2,0,0,0,0,0,0,2,2,0,0,0,0,4,4,0,0,0,0,3,0,0,0,0,0 | 3,0,3,0,0,3,0,0,0,0,0,0,4,0,0,0,4,0,0,0,0,0,0,0,0,0,0,0,0,0 | 0,0,0,0,0,1,1,0,0,0,3,4,1,2,0,4,0,0,0,0,3,2,0,0,0,3,1,3,0,0 | 0,0,0,2,0,0,0,0,0,2,3,0,0,5,4,0,0,0,0,0,1,0,1,0,3,0,0,0,0,0 | 0,5,0,0,0,0,0,0,0,0,0,0,0,0,0,0,3,0,0,0,0,0,0,3,0,3,0,0,0,0 | 0,0,1,0,0,0,0,0,0,0,0,0,0,0,0,0,0,0,0,0,0,0,0,0,0,0,0,0,0,3 | 0,1,0,0,0,0,0,0,0,0,0,3,0,0,0,0,1,0,0,0,4,0,0,5,2,0,0,0,0,0 | 0,1,0,0,0,0,0,0,0,0,0,0,0,2,0,4,3,0,0,3,0,3,0,0,0,0,0,0,4,0 | 0,0,3,0,0,0,0,3,0,0,0,0,0,0,0,0,0,0,0,0,0,0,0,4,0,0,0,0,3,0 | 2,0,0,0,0,1,0,4,0,0,0,0,0,0,0,0,5,1,1,0,0,0,2,0,3,4,0,0,0,0 | 4,0,0,0,4,0,0,0,0,1,1,0,0,0,0,0,0,0,0,0,0,0,2,3,0,0,0,0,3,3 | 0,0,0,0,0,0,0,0,0,0,4,0,0,0,0,0,0,0,0,4,0,5,0,0,2,0,0,0,3,0 | 0,5,0,0,0,0,4,0,0,0,1,0,0,0,0,0,3,0,0,0,0,3,1,0,4,1,1,0,0,1 | 4,0,0,0,0,3,1,0,0,1,0,0,0,0,0,3,0,4,5,0,0,0,0,0,0,0,0,0,0,0 | 0,0,0,0,5,1,2,1,0,0,0,0,0,0,0,0,0,0,0,4,0,0,0,0,1,0,0,2,0,0 | 0,0,4,0,0,0,0,0,0,0,0,3,0,0,0,0,0,0,0,0,5,0,0,0,0,3,0,0,4,0 | 4,0,1,0,0,0,0,2,0,0,0,0,0,4,4,0,0,0,2,0,4,0,0,0,0,0,0,0,4,0 | 0,3,0,0,3,0,0,2,0,0,0,3,0,0,0,4,0,0,0,0,0,0,0,0,0,0,5,0,0,0 | 0,0,0,0,0,3,0,0,0,0,1,0,0,0,0,0,0,0,0,3,0,0,1,0,0,0,3,0,0,0 | 0,3,0,0,0,3,0,0,0,0,0,1,0,0,0,0,0,1,0,3,0,1,3,0,4,0,0,0,0,0 | 0,0,0,0,3,0,0,0,0,0,3,0,0,0,0,0,0,2,0,0,0,0,2,0,0,5,0,0,0,0 | 0,0,5,0,0,0,0,3,0,0,0,0,0,3,3,2,0,0,0,0,4,2,0,4,0,0,3,0,0,0 | 5,1,0,0,0,0,0,0,0,0,0,0,0,0,3,0,0,3,0,0,0,0,0,0,0,0,0,0,0,0 | 0,0,3,2,0,0,0,0,0,2,0,1,0,0,0,4,0,0,0,0,0,1,0,0,0,0,0,0,0,0 | 0,0,2,0,3,0,0,0,5,0,0,0,4,3,0,0,4,0,0,0,4,0,0,0,3,0,0,0,0,0 | 0,0,3,0,0,0,0,0,0,0,3,3,0,0,0,0,0,0,0,0,0,4,4,0,0,0,0,3,0,0 | 0,4,3,2,4,0,4,0,3,0,0,0,0,0,0,0,0,0,3,0,5,0,4,0,0,0,0,3,0,0 | 0,0,0,0,1,1,0,0,0,0,0,0,0,2,0,0,0,0,4,4,0,0,0,0,0,0,0,0,0,5 | 0,0,0,5,3,1,0,0,0,2,0,4,1,4,0,0,0,0,3,0,0,0,0,5,0,0,0,0,0,0 | 0,3,0,0,4,0,0,0,4,0,0,5,0,0,1,0,0,0,0,0,0,0,0,0,0,0,0,3,0,0 | 0,2,0,0,0,0,0,0,0,3,1,0,4,2,5,0,5,0,1,0,1,0,2,0,0,0,0,0,0,4 | 4,0,0,0,0,2,0,2,2,0,0,0,0,0,5,0,0,4,0,4,5,1,0,0,1,0,0,0,0,0 | 0,0,0,0,0,1,0,2,0,0,0,0,0,0,0,0,0,0,0,2,0,0,0,0,0,0,0,3,0,0 | 0,0,2,0,0,0,5,0,0,0,0,0,0,3,0,2,0,0,3,4,4,0,0,0,0,0,2,5,1,4 | 0,0,0,0,4,0,0,0,0,0,0,2,0,0,1,1,0,0,0,0,0,0,0,0,0,0,5,0,0,0 | 0,0,1,0,0,0,0,0,0,0,0,0,0,0,4,0,0,0,0,0,1,0,0,0,0,3,0,0,0,0 | 0,0,4,0,0,0,0,0,0,0,0,0,0,2,2,0,0,0,0,0,0,0,0,0,0,2,0,0,1,0 | 0,0,0,0,0,0,0,0,0,5,0,0,4,0,0,0,0,0,5,0,0,0,0,5,0,0,0,0,0,0 | 0,0,5,0,0,0,0,0,0,0,0,0,0,5,0,0,3,0,0,0,0,0,0,0,0,0,5,0,0,4 | 0,4,0,0,0,0,3,0,0,0,0,0,5,0,0,0,0,4,4,0,0,0,0,0,0,2,0,0,0,0 | 0,0,0,0,0,0,0,0,0,0,0,3,0,0,0,0,0,2,3,0,0,0,0,0,0,0,0,0,5,0 | 0,0,0,0,4,0,0,2,4,0,4,0,0,5,3,0,0,0,0,5,0,0,1,0,0,0,0,0,0,0 | 0,0,0,2,2,2,0,0,0,0,0,0,0,2,0,0,0,5,3,0,3,0,0,0,0,0,0,0,0,0 | 0,0,1,0,0,5,1,0,0,0,4,0,0,0,0,2,2,0,0,0,0,0,0,0,0,3,0,0,5,0 | 0,0,0,0,0,0,2,0,2,0,1,4,4,4,0,0,0,5,0,0,0,2,0,0,0,0,2,0,0,0 | 0,0,0,0,0,0,0,0,0,0,0,4,0,2,0,0,0,0,0,0,0,0,0,2,0,0,0,4,0,0 | 5,0,0,0,0,0,4,0,0,4,0,2,0,0,2,0,0,4,0,0,0,0,0,2,0,0,0,3,0,0 | 0,0,0,0,0,4,0,4,3,3,0,0,0,0,0,0,0,5,0,0,1,2,1,0,0,0,0,0,2,0 | 0,0,0,5,0,0,0,0,0,0,5,0,0,0,0,0,0,0,0,0,0,0,0,1,0,0,0,0,0,0 | 5,5,0,0,5,0,5,0,0,0,0,0,0,2,0,0,0,4,0,0,0,0,0,0,0,5,0,0,0,0 | 0,0,2,0,0,1,0,0,0,0,0,0,5,4,0,0,0,2,2,0,0,0,0,5,0,0,0,0,0,0 |];
